9610
1 0 1 1 1 0 1 0 0 1 
9 4 4 9 4 2 4 2 2 2 2 2 2 2 2 2 2 2 2 3 4 2 2 3 2 2 3 2 3 2 3 3 3 3 3 3 3 3 3 6 6 3 3 6 6 6 3 3 3 3 3 3 6 6 6 6 3 6 6 6 4 4 6 6 4 4 4 6 4 0 0 0 0 0 4 0 0 0 0 0 4 4 4 4 4 4 4 4 4 4 4 9 4 9 4 9 9 4 9 9 
